\ENCODING=ISO-8859-1
\Problem name: instances

Maximize
 obj:
Subject To
 c1: 79 x2 + 66 x3 + 7 x4 + 89 x5 + 60 x7 + 89 x8 + 87 x9 + 98 x10 <= 244
 c2: 78 x1 + 19 x2 - 42 x3 + 68 x4 + 66 x5 + 88 x6 + 46 x7 + 69 x8 <= 319
 c3: 95 x1 + 25 x2 + 76 x3 - 38 x5 - 8 x7 + 83 x8 + 70 x9 + 85 x10 <= 130
 c4: 13 x1 + 48 x2 + 80 x3 + 66 x4 + 4 x5 + 24 x6 - 13 x7 + 54 x9 + 42 x10
     <= 232
 c5: 52 x1 + 45 x2 - 52 x3 + 73 x4 + 56 x5 - 17 x6 + 99 x7 + 67 x8 + 24 x9
     + 28 x10 <= 175
Bounds
      x1 >= 0
      x2 >= 0
      x3 >= 0
      x4 >= 0
      x5 >= 0
      x6 >= 0
      x7 >= 0
      x8 >= 0
      x9 >= 0
      x10 >= 0
Generals
 x1  x2  x3  x4  x5  x6  x7  x8  x9  x10 
End
